TOUR_SECTION
1
128
44
58
174
144
158
129
64
4
180
45
142
171
59
56
11
195
6
13
62
137
23
138
40
36
60
163
145
147
12
193
156
191
74
125
173
149
87
151
135
84
80
110
43
27
157
114
81
15
68
52
10
69
160
39
169
198
67
17
76
140
71
109
119
105
106
123
47
104
63
154
14
98
28
176
77
25
88
124
187
165
131
42
116
95
111
172
150
3
33
100
199
20
8
65
113
48
201
200
97
175
90
190
46
41
7
82
170
29
75
26
55
167
134
21
164
5
32
9
18
89
30
50
127
93
143
70
194
2
31
120
159
103
108
99
141
112
139
102
16
155
24
78
72
91
96
34
168
115
153
37
126
57
188
117
161
133
184
51
183
86
73
186
54
49
122
35
53
61
79
118
136
130
101
178
177
166
185
162
146
179
92
22
38
181
19
189
94
182
83
152
66
121
132
148
192
196
107
85
197
-1
EOF